g3 0 1 0	# problem eigmaxc
 22 22 1 0 22	# vars, constraints, objectives, ranges, eqns
 22 0	# nonlinear constraints, objectives
 0 0	# network constraints: nonlinear, linear
 22 0 0	# nonlinear vars in constraints, objectives, both
 0 0 0 1	# linear network variables; functions; arith, flags
 0 0 0 0 0	# discrete variables: binary, integer, nonlinear (b,c,o)
 103 1	# nonzeros in Jacobian, gradients
 0 0	# max name lengths: constraints, variables
 0 0 0 0 0	# common exprs: b,c,o,c1,o1
C0	#o
o54	#sumlist
21
o2	#*
v1	#q1
v1	#q1
o2	#*
v2	#q2
v2	#q2
o2	#*
v3	#q3
v3	#q3
o2	#*
v4	#q4
v4	#q4
o2	#*
v5	#q5
v5	#q5
o2	#*
v6	#q6
v6	#q6
o2	#*
v7	#q7
v7	#q7
o2	#*
v8	#q8
v8	#q8
o2	#*
v9	#q9
v9	#q9
o2	#*
v10	#q10
v10	#q10
o2	#*
v11	#q11
v11	#q11
o2	#*
v12	#q12
v12	#q12
o2	#*
v13	#q13
v13	#q13
o2	#*
v14	#q14
v14	#q14
o2	#*
v15	#q15
v15	#q15
o2	#*
v16	#q16
v16	#q16
o2	#*
v17	#q17
v17	#q17
o2	#*
v18	#q18
v18	#q18
o2	#*
v19	#q19
v19	#q19
o2	#*
v20	#q20
v20	#q20
o2	#*
v21	#q21
v21	#q21
C1	#e1
o2	#*
v1	#q1
v0	#d
C2	#e2
o2	#*
v2	#q2
v0	#d
C3	#e3
o2	#*
v3	#q3
v0	#d
C4	#e4
o2	#*
v4	#q4
v0	#d
C5	#e5
o2	#*
v5	#q5
v0	#d
C6	#e6
o2	#*
v6	#q6
v0	#d
C7	#e7
o2	#*
v7	#q7
v0	#d
C8	#e8
o2	#*
v8	#q8
v0	#d
C9	#e9
o2	#*
v9	#q9
v0	#d
C10	#e10
o2	#*
v10	#q10
v0	#d
C11	#e11
o2	#*
v11	#q11
v0	#d
C12	#e12
o2	#*
v12	#q12
v0	#d
C13	#e13
o2	#*
v13	#q13
v0	#d
C14	#e14
o2	#*
v14	#q14
v0	#d
C15	#e15
o2	#*
v15	#q15
v0	#d
C16	#e16
o2	#*
v16	#q16
v0	#d
C17	#e17
o2	#*
v17	#q17
v0	#d
C18	#e18
o2	#*
v18	#q18
v0	#d
C19	#e19
o2	#*
v19	#q19
v0	#d
C20	#e20
o2	#*
v20	#q20
v0	#d
C21	#e21
o2	#*
v21	#q21
v0	#d
O0 0	#obj
n0
x22	# initial guess
0 1
1 0.2182178902359924
2 0.2182178902359924
3 0.2182178902359924
4 0.2182178902359924
5 0.2182178902359924
6 0.2182178902359924
7 0.2182178902359924
8 0.2182178902359924
9 0.2182178902359924
10 0.2182178902359924
11 0.2182178902359924
12 0.2182178902359924
13 0.2182178902359924
14 0.2182178902359924
15 0.2182178902359924
16 0.2182178902359924
17 0.2182178902359924
18 0.2182178902359924
19 0.2182178902359924
20 0.2182178902359924
21 0.2182178902359924
r	#22 ranges (rhs's)
4 1
4 0
4 0
4 0
4 0
4 0
4 0
4 0
4 0
4 0
4 0
4 0
4 0
4 0
4 0
4 0
4 0
4 0
4 0
4 0
4 0
4 0
b	#22 bounds (on variables)
3
0 -1 1
0 -1 1
0 -1 1
0 -1 1
0 -1 1
0 -1 1
0 -1 1
0 -1 1
0 -1 1
0 -1 1
0 -1 1
0 -1 1
0 -1 1
0 -1 1
0 -1 1
0 -1 1
0 -1 1
0 -1 1
0 -1 1
0 -1 1
0 -1 1
k21	#intermediate Jacobian column lengths
21
24
28
32
36
40
44
48
52
56
60
64
68
72
76
80
84
88
92
96
100
J0 21
1 0
2 0
3 0
4 0
5 0
6 0
7 0
8 0
9 0
10 0
11 0
12 0
13 0
14 0
15 0
16 0
17 0
18 0
19 0
20 0
21 0
J1 3
0 0
1 -10
2 -1
J2 4
0 0
1 -1
2 -9
3 -1
J3 4
0 0
2 -1
3 -8
4 -1
J4 4
0 0
3 -1
4 -7
5 -1
J5 4
0 0
4 -1
5 -6
6 -1
J6 4
0 0
5 -1
6 -5
7 -1
J7 4
0 0
6 -1
7 -4
8 -1
J8 4
0 0
7 -1
8 -3
9 -1
J9 4
0 0
8 -1
9 -2
10 -1
J10 4
0 0
9 -1
10 -1
11 -1
J11 4
0 0
10 -1
11 0
12 -1
J12 4
0 0
11 -1
12 1
13 -1
J13 4
0 0
12 -1
13 2
14 -1
J14 4
0 0
13 -1
14 3
15 -1
J15 4
0 0
14 -1
15 4
16 -1
J16 4
0 0
15 -1
16 5
17 -1
J17 4
0 0
16 -1
17 6
18 -1
J18 4
0 0
17 -1
18 7
19 -1
J19 4
0 0
18 -1
19 8
20 -1
J20 4
0 0
19 -1
20 9
21 -1
J21 3
0 0
20 -1
21 10
G0 1
0 -1
